p cnf 10 50
-1 -7 -2 0
4 7 6 0
2 6 7 0
2 5 9 0
6 5 7 0
6 -2 10 0
2 -9 -10 0
8 -3 -10 0
-10 3 5 0
-6 -9 -1 0
-6 -4 -10 0
-2 4 5 0
10 -8 -6 0
-3 -8 -10 0
8 -2 -5 0
2 6 1 0
-8 -3 -9 0
-8 7 -9 0
-6 2 -7 0
-10 -2 3 0
9 1 10 0
-10 4 -6 0
7 6 8 0
-3 10 -2 0
7 6 -10 0
-10 8 -5 0
-1 -6 -8 0
5 -2 7 0
-3 4 10 0
-9 4 -3 0
-1 9 -5 0
-8 5 9 0
-7 3 1 0
9 -10 -1 0
-10 -7 5 0
-9 7 10 0
-2 -4 8 0
10 6 4 0
3 -5 -4 0
7 -10 -6 0
-2 4 6 0
-4 5 6 0
-4 2 3 0
-10 7 -8 0
-2 -9 6 0
8 5 -1 0
10 -7 -9 0
1 -10 9 0
9 -3 -10 0
10 -6 -7 0